100
128
44
12
18
2
3
33
49
39
11
28
25
8
17
10
17
51
16
45
3
16
24
21
20
39
25
21
23
2
1
14
45
41
59
30
42
16
17
36
30
16
46
20
30
22
39
16
29
18
53
31
44
21
32
39
47
56
17
28
60
64
63
39
42
35
42
31
28
27
54
23
3
46
26
41
46
3
38
20
59
3
20
1
45
58
64
6
37
42
60
50
48
41
47
47
36
62
64
45
40
17